; benchmark generated from python API
(set-info :status unknown)
(declare-fun L_0 () Real)
(declare-fun S_2 () Real)
(declare-fun A_0 () Real)
(declare-fun C () Real)
(declare-fun S_1 () Real)
(declare-fun L_2 () Real)
(declare-fun A_2 () Real)
(declare-fun S_0 () Real)
(declare-fun S_3 () Real)
(declare-fun S_4 () Real)
(declare-fun L_1 () Real)
(declare-fun A_1 () Real)
(declare-fun A_3 () Real)
(declare-fun L_3 () Real)
(declare-fun A_4 () Real)
(assert
 (let (($x34 (>= L_0 0.0)))
 (let (($x685 (>= C 5.0)))
 (let (($x12508 (<= (+ (* (- 1.0) L_1) A_1 (* 2.0 C) (* (- 1.0) A_3) L_3) (- 5.0))))
 (let ((?x401 (* (- 1.0) A_3)))
 (let ((?x489 (* (- 1.0) L_2)))
 (let ((?x2125 (+ A_2 ?x489 C ?x401 L_3)))
 (let (($x11595 (<= ?x2125 (- 5.0))))
 (let (($x71 (= L_3 L_2)))
 (let (($x7346 (<= (+ (* (- 1.0) L_1) A_1 (* 2.0 C) (* (- 1.0) S_4)) 0.0)))
 (let (($x2110 (<= (+ A_2 ?x489 C (* (- 1.0) S_4)) 0.0)))
 (let (($x1275 (<= (+ (* (- 1.0) L_3) A_3 (* (- 1.0) S_4)) 0.0)))
 (let (($x9610 (or $x1275 (<= (+ (* 3.0 C) (* (- 1.0) S_4) S_0) 0.0) $x2110 $x7346)))
 (let (($x61 (= L_2 L_1)))
 (let (($x12441 (or $x61 (<= (+ (* (- 2.0) C) S_4 (* (- 1.0) A_2) L_2) (- 5.0)))))
 (let (($x12315 (or $x61 (<= (+ (* (- 1.0) C) (* (- 1.0) A_2) S_3 L_2) (- 5.0)))))
 (let (($x12314 (or $x61 (<= (+ C (* (- 1.0) A_2) A_1 (* (- 1.0) L_1) L_2) (- 5.0)) (<= (+ (* 2.0 C) (* (- 1.0) A_2) S_0 L_2) (- 5.0)))))
 (let (($x12201 (<= 0.0 (+ (* (- 1.0) L_3) A_3 (* (- 1.0) C) (* (- 1.0) A_2) L_2))))
 (let (($x2114 (<= (+ A_2 ?x489 (* (- 1.0) S_3)) 0.0)))
 (let (($x7113 (or (<= (+ C A_1 (* (- 1.0) S_3) (* (- 1.0) L_1)) 0.0) $x2114 (<= (+ (* 2.0 C) (* (- 1.0) S_3) S_0) 0.0))))
 (let (($x1636 (<= (+ A_1 (* (- 1.0) S_2) (* (- 1.0) L_1)) 0.0)))
 (let (($x51 (= L_1 L_0)))
 (let (($x12180 (or $x51 (<= (+ (* (- 3.0) C) S_4 (* (- 1.0) A_1) L_1) (- 5.0)))))
 (let (($x6166 (or $x1275 $x2110 (<= (+ (* 2.0 C) (* (- 1.0) S_4) S_1) 0.0))))
 (let (($x12091 (or $x51 (<= (+ (* (- 1.0) C) (* (- 1.0) A_1) S_2 L_1) (- 5.0)))))
 (let ((?x476 (* (- 1.0) L_3)))
 (let ((?x409 (* (- 1.0) A_1)))
 (let ((?x458 (* (- 1.0) C)))
 (let ((?x405 (* (- 1.0) A_2)))
 (let (($x21971 (or $x51 (<= (+ ?x405 L_2 ?x458 A_3 ?x409 S_1 L_1 ?x476) 0.0))))
 (let ((?x876 (* (- 2.0) C)))
 (let ((?x1740 (+ ?x476 A_3 ?x876 ?x409 L_1)))
 (let (($x11790 (<= 0.0 ?x1740)))
 (let ((?x502 (* (- 1.0) L_1)))
 (let ((?x979 (* (- 1.0) S_0)))
 (let (($x22024 (or $x71 (<= (+ A_2 ?x489 ?x458 ?x401 A_1 ?x979 ?x502 L_3) 0.0) $x11790)))
 (let (($x22086 (or $x71 (<= (+ A_2 ?x489 ?x401 A_1 (* (- 1.0) S_1) ?x502 L_3) 0.0) $x11790)))
 (let (($x2371 (<= (+ A_2 ?x489 ?x401 A_1 (* (- 1.0) A_0) ?x502 L_3 L_0) 0.0)))
 (let (($x11179 (not (<= 0.0 (+ L_2 ?x476)))))
 (let (($x2369 (<= (+ A_2 ?x489 C ?x401 A_1 (* (- 1.0) S_2) ?x502 L_3) 0.0)))
 (let (($x1741 (<= ?x1740 0.0)))
 (let (($x1616 (not $x1741)))
 (let (($x995 (= (+ L_3 ?x401 A_1 (* 2.0 C) ?x502) 0.0)))
 (let (($x284 (not (<= 0.0 (+ L_1 ?x489)))))
 (let (($x108 (>= S_1 S_0)))
 (let (($x111 (>= S_2 S_1)))
 (let (($x114 (>= S_3 S_2)))
 (let (($x117 (>= S_4 S_3)))
 (let (($x119 (>= A_1 A_0)))
 (let (($x120 (>= A_2 A_1)))
 (let (($x121 (>= A_3 A_2)))
 (let (($x122 (>= A_4 A_3)))
 (and $x122 $x121 $x120 $x119 $x117 $x114 $x111 $x108 (or $x51 (not (<= 0.0 (+ ?x502 L_0)))) (or $x51 $x61 (= (+ ?x405 A_1 C ?x502 L_2) 0.0)) (or $x51 $x284 (<= 0.0 (+ ?x405 A_1 C))) (<= (+ L_3 ?x401 S_3) 0.0) (or $x51 (<= (+ ?x409 ?x876 S_3 L_1) (- 5.0))) (or $x71 (not $x61) (<= (+ C ?x401 A_2 ?x502 L_3) 0.0)) (or $x71 $x995 $x1616 $x2114) (or $x71 $x995 $x1616 $x2369) (<= (+ ?x458 (* (- 1.0) A_0) S_1 L_0) 0.0) (or $x61 (<= 0.0 ?x2125)) (or $x71 (<= (+ ?x458 S_4 ?x401 L_3) (- 5.0))) (or $x61 (<= (+ ?x405 S_2 L_2) (- 5.0))) (or $x61 (<= (+ L_3 C ?x405 A_1 ?x502) 0.0) $x11179) (or $x51 (<= (+ ?x409 S_1 L_1) (- 5.0))) (or $x2114 (<= (+ C (* (- 1.0) S_3) S_1) 0.0)) (or $x51 (<= (+ C ?x409 S_0 L_1) (- 5.0))) (or $x1275 (<= (+ C (* (- 1.0) S_4) S_2) 0.0)) (or $x71 $x11179) (or $x51 $x1741) (or $x71 $x2371 $x11790) (or $x71 $x11595 $x11790) $x22086 (or $x51 (<= (+ ?x405 L_2 A_3 ?x409 S_0 L_1 ?x476) 0.0)) $x22024 (or $x71 $x2110 $x11790) $x21971 (<= (+ ?x405 L_2 ?x458 S_3) 0.0) $x12091 $x6166 (<= (+ ?x876 S_3 (* (- 1.0) S_2)) 0.0) $x12180 (<= (+ (* (- 4.0) C) S_4 (* (- 1.0) S_1)) 0.0) (or $x61 $x284) (or $x1636 (<= (+ C (* (- 1.0) S_2) S_0) 0.0)) $x7113 (or $x71 $x12201) (or $x61 (<= (+ C ?x405 S_1 L_2) (- 5.0))) $x12314 $x12315 $x12441 (or $x71 (<= (+ C ?x401 S_2 L_3) (- 5.0))) (<= (+ ?x409 S_3 ?x876 L_1) 0.0) (<= (+ (* (- 3.0) C) S_3 (* (- 1.0) S_1)) 0.0) (or $x71 (<= (+ ?x401 S_3 L_3) (- 5.0))) (<= (+ ?x458 ?x409 S_2 L_1) 0.0) (or $x71 $x11595 (<= (+ L_3 ?x401 (* 2.0 C) S_1) (- 5.0))) (<= (+ (* (- 3.0) C) S_2 ?x979) 0.0) $x9610 (or $x71 $x11595 (<= (+ (* 3.0 C) ?x401 S_0 L_3) (- 5.0)) $x12508) (<= (+ (* (- 4.0) C) S_4 (* (- 1.0) A_0) L_0) 0.0) (<= (+ (* (- 1.0) A_0) (* (- 3.0) C) S_3 L_0) 0.0) (<= (+ (* (- 4.0) C) S_3 ?x979) 0.0) (<= (+ (* (- 5.0) C) S_4 ?x979) 0.0) (<= (+ L_1 ?x409 (* (- 3.0) C) S_4) 0.0) $x685 $x34 (not (>= (+ (* (- 1.0) A_4) L_3 S_4) 0.0)) (<= (+ L_3 ?x401 ?x458 S_4) 0.0) (<= (+ (* (- 1.0) A_0) S_0 L_0) 0.0) (<= (+ ?x409 L_1 S_1) 0.0) (<= (+ ?x405 L_2 ?x876 S_4) 0.0) (<= (+ (* (- 3.0) C) S_4 (* (- 1.0) S_2)) 0.0) (<= (+ ?x876 S_4 (* (- 1.0) S_3)) 0.0) (<= (+ ?x876 S_1 ?x979) 0.0) (<= (+ ?x405 L_2 S_2) 0.0) (<= (+ ?x876 S_2 (* (- 1.0) S_1)) 0.0) (<= (+ ?x876 (* (- 1.0) A_0) S_2 L_0) 0.0))))))))))))))))))))))))))))))))))))))))))))))))))))))
(check-sat)
